71
Time limit set to 60 seconds
Running CP solver
/home/omastto1/General-Optimization-Solver/src/solvers/mmrcpsp.py:42(stream:108:6): Warning: Cumulative expression 'pulse': height is zero, expression is zero everywhere.
                                                                                               VarCumulAtom_149 = pulse(task_0_mode_0, 0)
/home/omastto1/General-Optimization-Solver/src/solvers/mmrcpsp.py:42(stream:108:1254): Warning: Cumulative expression 'pulse': height is zero, expression is zero everywhere.
                                                                                                  VarCumulAtom_198 = pulse(task_17_mode_0, 0)
/home/omastto1/General-Optimization-Solver/src/solvers/mmrcpsp.py:42(stream:109:6): Warning: Cumulative expression 'pulse': height is zero, expression is zero everywhere.
                                                                                               VarCumulAtom_202 = pulse(task_0_mode_0, 0)
/home/omastto1/General-Optimization-Solver/src/solvers/mmrcpsp.py:42(stream:109:1254): Warning: Cumulative expression 'pulse': height is zero, expression is zero everywhere.
                                                                                                  VarCumulAtom_251 = pulse(task_17_mode_0, 0)
 ! --------------------------------------------------- CP Optimizer 20.1.0.0 --
 ! Minimization problem - 69 variables, 51 constraints
 ! TimeLimit            = 60
 ! Workers              = 14
 ! LogVerbosity         = Terse
 ! Initial process time : 0.00s (0.00s extraction + 0.00s propagation)
 !  . Log search space  : 158.9 (before), 158.9 (after)
 !  . Memory usage      : 754.6 kB (before), 754.6 kB (after)
 ! Using parallel search with 14 workers.
 ! ----------------------------------------------------------------------------
 !          Best Branches  Non-fixed    W       Branch decision
                        0         69                 -
 + New bound is 24
 ! Using iterative diving.
 ! Using temporal relaxation.
 *            24       13  0.10s        1      (gap is 0.00%)
 ! ----------------------------------------------------------------------------
 ! Search completed, 1 solution found.
 ! Best objective         : 24 (optimal - effective tol. is 0)
 ! Best bound             : 24
 ! ----------------------------------------------------------------------------
 ! Number of branches     : 56488
 ! Number of fails        : 1425
 ! Total memory usage     : 9.0 MB (8.9 MB CP Optimizer + 0.1 MB Concert)
 ! Time spent in solve    : 0.13s (0.13s engine + 0.00s extraction)
 ! Search speed (br. / s) : 470733.3
 ! ----------------------------------------------------------------------------
task_0: (start=0, end=0, size=0, length=0)
Task 0 is scheduled in mode 0 from 0 to 0
task_1: (start=0, end=2, size=2, length=2)
Task 1 is scheduled in mode 0 from 0 to 2
task_2: (start=0, end=2, size=2, length=2)
Task 2 is scheduled in mode 0 from 0 to 2
task_3: (start=0, end=5, size=5, length=5)
Task 3 is scheduled in mode 0 from 0 to 5
task_4: (start=2, end=3, size=1, length=1)
Task 4 is scheduled in mode 0 from 2 to 3
task_5: (start=2, end=5, size=3, length=3)
Task 5 is scheduled in mode 0 from 2 to 5
task_6: (start=5, end=13, size=8, length=8)
Task 6 is scheduled in mode 2 from 5 to 13
task_7: (start=13, end=15, size=2, length=2)
Task 7 is scheduled in mode 0 from 13 to 15
task_8: (start=3, end=7, size=4, length=4)
Task 8 is scheduled in mode 1 from 3 to 7
task_9: (start=7, end=17, size=10, length=10)
Task 9 is scheduled in mode 2 from 7 to 17
task_10: (start=15, end=18, size=3, length=3)
Task 10 is scheduled in mode 0 from 15 to 18
task_11: (start=7, end=16, size=9, length=9)
Task 11 is scheduled in mode 2 from 7 to 16
task_12: (start=3, end=12, size=9, length=9)
Task 12 is scheduled in mode 1 from 3 to 12
task_13: (start=18, end=20, size=2, length=2)
Task 13 is scheduled in mode 0 from 18 to 20
task_14: (start=16, end=23, size=7, length=7)
Task 14 is scheduled in mode 2 from 16 to 23
task_15: (start=20, end=24, size=4, length=4)
Task 15 is scheduled in mode 0 from 20 to 24
task_16: (start=20, end=23, size=3, length=3)
Task 16 is scheduled in mode 0 from 20 to 23
task_17: (start=24, end=24, size=0, length=0)
Task 17 is scheduled in mode 0 from 24 to 24
Optimal solution found
Objective value: 24
Solution is optimal.
